
maximize cost: 166 x6647 + 139 x664f + 160 x6650 + 5 x6651
 + 290 x665e + 428 x665f + 206 x6660 + 548 x6667 + 441 x6668
 + 152 x666f + 174 x6670 + 314 x6674 + 548 x667d + 441 x667e
 + 19 x668f + 124 x6690 + 241 x6691 + 587 x6698 + 172 x6699
 + 127 x66a0 + 1568 x66a1 + 90 x66a4 + 173 x66af + 173 x66b0
 + 141 x66b3 + 111 x66b5 + 675 x66b6 + 62 x66bc + 15 x66ce
 + 15 x66cf + 90 x66d4 + 994 x66d5 + 63 x66db + 10 x66eb
 + 107 x66ec + 38 x66ee + 158 x66f6 + 5 x6702 + 598 x6703
 + 6 x670e + 9 x670f + 179 x6725 + 101 x6726 + 6 x6731
 + 210 x6732 + 162 x6737 + 5 x6748 + 131 x6749 + 5 x674c
 + 117 x674d + 4 x674f + 6 x6753 + 205 x6754 + 92 x6755
 + 87 x6758 + 1095 x6759 + 157 x675f + 83 x6765 + 6 x6769
 + 120 x676a + 63 x677e + 540 x677f + 2 x6783 + 2 x6784
 + 342 x678a + 90 x6792 + 936 x6793 + 6 x6796 + 114 x6797
 + 4 x67a2 + 2 x67a5 + 123 x67a6 + 101 x67a7 + 437 x67b3
 + 5 x67d4 + 5 x67d5 + 6 x67dd + 210 x67de + 135 x67e0
 + 101 x67e8 + 109 x67ea + 6 x67f2 + 227 x67f3 + 6 x6823
 + 114 x6824 + 398 x6825 + 327 x6826 + 6 x682b + 216 x682c
 + 96 x682e + 5 x6833 + 5 x6834 + 162 x6837 + 5 x684d
 + 5 x684e + 69 x6853 + 133 x6854 + 3 x6859 + 129 x685a
 + 123 x6860 + 325 x6861 + 5 x6864 + 107 x6865 + 4 x6868
 + 109 x686c + 175 x686e + 6 x6871 + 210 x6872 + 4 x6873
 + 10 x6877 + 11 x6878 + 102 x687f + 102 x6880 + 162 x6884
 + 6 x6890 + 217 x6891 + 13 x68a0 + 45 x68a5 + 5 x68b6
 + 131 x68b7 + 67 x68c4 + 118 x68c5 + 4 x68c6 + 6 x68cd
 + 114 x68ce + 6 x68de + 120 x68df + 96 x68e1 + 390 x68e3
 + 319 x68e4 + 5 x68e5 + 5 x68e6 + 112 x68e9 + 6 x68ec
 + 120 x68ed + 2 x68ef + 107 x68f0 + 101 x68f1 + 743 x6903
 + 132 x6909 + 151 x690a + 69 x6912 + 134 x6913 + 303 x691e
 + 124 x6924 + 191 x6925 + 175 x6935 + 6 x693b + 114 x693c
 + 2 x6948 + 123 x6949 + 101 x694a + 368 x6950 + 348 x6951
 + 6 x6952 + 6 x6953 + 437 x695c + 97 x6969 + 97 x696a
 + 114 x6978 + 6 x6979 + 6 x697a + 6 x6989 + 6 x698a
 + 67 x698f + 118 x6990 + 131 x699c + 131 x699d + 390 x69a7
 + 319 x69a8 + 112 x69ac + 6 x69af + 227 x69b0 + 6 x69b3
 + 120 x69b4 + 4 x69b8 + 96 x69be + 3 x69e0 + 105 x69e1
 + 6 x69e7 + 114 x69e8 + 398 x69e9 + 327 x69ea + 4 x69ec
 + 96 x69f6 + 3 x6a17 + 129 x6a18 + 4 x6a21 + 10 x6a2a
 + 11 x6a2b + 6 x6a32 + 120 x6a33 + 6 x6a34 + 114 x6a35
 + 6 x6a3b + 217 x6a3c + 96 x6a3f + 101 x6a41 + 13 x6a43
 + 3 x6a5c + 129 x6a5d + 6 x6a60 + 114 x6a61 + 4 x6a65
 + 96 x6a6a + 390 x6a6c + 319 x6a6d + 6 x6a80 + 120 x6a81
 + 132 x6a83 + 151 x6a84 + 303 x6a8c + 6 x6aa5 + 114 x6aa6
 + 368 x6aa8 + 348 x6aa9 + 6 x6aaa + 6 x6aab + 2 x6aae
 + 123 x6aaf + 101 x6ab0 + 97 x6ab5 + 97 x6ab6 + 212 x6ab8
 + 114 x6ac1 + 6 x6ac2 + 6 x6ac3 + 6 x6ad0 + 6 x6ad1
 + 390 x6ae1 + 319 x6ae2 + 6 x6aed + 227 x6aee + 6 x6b0e
 + 114 x6b0f + 398 x6b10 + 327 x6b11 + 96 x6b15 + 3 x6b2b
 + 129 x6b2c + 2 x6b31 + 114 x6b32 + 4 x6b34 + 6 x6b38
 + 114 x6b39 + 4 x6b3a + 10 x6b3d + 11 x6b3e + 101 x6b44
 + 6 x6b4f + 217 x6b50 + 13 x6b56 + 3 x6b62 + 129 x6b63
 + 4 x6b6c + 6 x6b73 + 114 x6b74 + 96 x6b7e + 390 x6b80
 + 319 x6b81 + 6 x6b84 + 120 x6b85 + 2 x6b87 + 116 x6b88
 + 266 x6b93 + 132 x6b98 + 151 x6b99 + 23 x6ba4 + 6 x6bb6
 + 114 x6bb7 + 2 x6bbe + 123 x6bbf + 101 x6bc0 + 368 x6bc4
 + 348 x6bc5 + 6 x6bc6 + 6 x6bc7 + 212 x6bc9 + 97 x6bd3
 + 97 x6bd4 + 114 x6bde + 6 x6bdf + 6 x6be0 + 6 x6beb
 + 6 x6bec + 390 x6bfc + 319 x6bfd + 6 x6c00 + 227 x6c01
 + 2 x6c21 + 113 x6c22 + 6 x6c24 + 114 x6c25 + 398 x6c26
 + 327 x6c27 + 4 x6c29 + 96 x6c2d + 3 x6c48 + 129 x6c49
 + 4 x6c51 + 10 x6c59 + 11 x6c5a + 6 x6c67 + 217 x6c68
 + 13 x6c6c + 6 x6c7f + 114 x6c80 + 96 x6c84 + 390 x6c86
 + 319 x6c87 + 132 x6c90 + 151 x6c91 + 23 x6c95 + 368 x6ca4
 + 348 x6ca5 + 6 x6ca6 + 6 x6ca7 + 97 x6cab + 97 x6cac
 + 114 x6caf + 6 x6cb0 + 6 x6cb1 + 6 x6cb7 + 6 x6cb8
 + 390 x6cbe + 319 x6cbf

subject to

z = 0


o = 1


+1 x6647 = +1



+1 x6668 +1 x667e +1 x6699 +1 x66b3 +1 x6726 +1 x6826 +1 x68e4 +1 x6951
+1 x69a8 +1 x69ea +1 x6a6d +1 x6aa9 +1 x6ae2 +1 x6b11 +1 x6b81 +1 x6bc5
+1 x6bfd +1 x6c27 +1 x6c87 +1 x6ca5 +1 x6cbf = +1



+1 x6647 -1 x664e +1 x6650 = +0

+1 x664e -1 x664f -1 x6650 = +0

+1 x664f -1 x6651 +0 x6652 = +0

+1 x6651 -1 x665e -1 x665f = +0

+1 x665e -1 x6660 +1 x6667 = +0

+1 x665f -1 x6667 -1 x6668 = +0

+1 x6660 -1 x666f -1 x6670 = +0

+1 x666f -1 x6674 +1 x667d = +0

+1 x6670 -1 x667d -1 x667e = +0

+1 x6674 -1 x668f -1 x6690 = +0

+1 x668f -1 x6691 +1 x6713 = +0

+1 x6690 -1 x6698 -1 x6699 = +0

+1 x6691 -1 x66a0 -1 x66a1 = +0

+1 x66a0 -1 x66a4 +1 x6755 = +0

+1 x66a4 -1 x66ac +1 x66bc = +0

+1 x66ac -1 x66af -1 x66b0 = +0

+1 x66af -1 x66b3 +0 x66b4 = +0

+1 x66b0 -1 x66b5 -1 x66b6 = +0

+1 x66b5 -1 x66bc +1 x6702 +1 x678a = +0

+1 x6698 -1 x66c9 +1 x66db = +0

+1 x66c9 -1 x66ce -1 x66cf = +0

+1 x66ce -1 x66d2 +0 x66d3 = +0

+1 x66cf -1 x66d4 -1 x66d5 = +0

+1 x66d4 -1 x66db +1 x6ba4 = +0

+1 x66b6 -1 x66eb -1 x66ec = +0

+1 x66d2 -1 x66ee +1 x6790 = +0

+1 x66eb +1 x66ec -1 x66f6 = +0

+1 x66f6 -1 x6702 -1 x6703 = +0

+1 x66ee -1 x670e -1 x670f = +0

+1 x670e -1 x6713 +0 x6714 = +0

+1 x670f -1 x6725 -1 x6726 = +0

+1 x66d5 -1 x6731 -1 x6732 = +0

+1 x6731 -1 x6737 +1 x6769 +1 x676a = +0

+1 x6737 -1 x6743 +1 x67a7 = +0

+1 x66a1 -1 x6746 +1 x674d = +0

+1 x6743 -1 x6748 -1 x6749 = +0

+1 x6746 -1 x674c -1 x674d = +0

+1 x6748 -1 x674f +0 x6750 = +0

+1 x6703 -1 x6753 -1 x6754 = +0

+1 x674c -1 x6755 +0 x6756 = +0

+1 x6725 -1 x6758 -1 x6759 = +0

+1 x6753 -1 x675f +1 x686e = +0

+1 x6758 -1 x6765 +1 x6b93 = +0

+1 x6732 -1 x6769 -1 x676a = +0

+1 x675f -1 x6775 +1 x67e8 = +0

+1 x6765 -1 x6779 +1 x67a2 = +0

+1 x6775 -1 x677e -1 x677f = +0

+1 x6779 -1 x6783 -1 x6784 = +0

+1 x677e -1 x678a +0 x678b = +0

+1 x6783 -1 x6790 +0 x6791 = +0

+1 x6784 -1 x6792 -1 x6793 = +0

+1 x674f -1 x6795 +1 x6868 = +0

+1 x6749 -1 x6796 -1 x6797 = +0

+1 x6792 -1 x67a2 +1 x6c95 = +0

+1 x6795 -1 x67a5 -1 x67a6 = +0

+1 x6796 -1 x67a7 +1 x67f2 +1 x6825 = +0

+1 x67a5 -1 x67b3 +0 x67b4 = +0

+1 x6754 -1 x67d4 -1 x67d5 = +0

+1 x677f -1 x67dd -1 x67de = +0

+1 x67d5 -1 x67e0 +1 x6841 = +0

+1 x67dd -1 x67e8 +1 x6935 = +0

+1 x67d4 -1 x67ea +1 x6833 = +0

+1 x6797 -1 x67f2 -1 x67f3 = +0

+1 x67a6 -1 x6823 -1 x6824 = +0

+1 x67f3 -1 x6825 -1 x6826 = +0

+1 x6759 -1 x682b -1 x682c = +0

+1 x6823 -1 x682e +1 x6890 +1 x68e3 = +0

+1 x67ea -1 x6833 -1 x6834 = +0

+1 x682b +1 x682c -1 x6837 = +0

+1 x6834 -1 x6841 +0 x6842 = +0

+1 x682e -1 x6848 +1 x68e1 = +0

+1 x67de -1 x684d -1 x684e = +0

+1 x67e0 -1 x6853 -1 x6854 = +0

+1 x6837 -1 x6856 +1 x68f1 = +0

+1 x6848 -1 x6859 -1 x685a = +0

+1 x684e -1 x685f +1 x68fb = +0

+1 x6853 -1 x6860 -1 x6861 = +0

+1 x6856 -1 x6864 -1 x6865 = +0

+1 x6859 -1 x6868 +0 x6869 = +0

+1 x684d -1 x686c +1 x68e5 = +0

+1 x6860 +1 x6861 -1 x686e +1 x68e9 = +0

+1 x6793 -1 x6871 -1 x6872 = +0

+1 x6864 -1 x6873 +0 x6874 = +0

+1 x67b3 -1 x6877 -1 x6878 = +0

+1 x685f -1 x687f -1 x6880 = +0

+1 x6871 -1 x6884 +1 x68ec +1 x68ed = +0

+1 x6824 -1 x6890 -1 x6891 = +0

+1 x6877 +1 x6878 -1 x68a0 = +0

+1 x687f +1 x6880 -1 x68a5 = +0

+1 x6884 -1 x68a9 +1 x694a = +0

+1 x68a9 -1 x68b6 -1 x68b7 = +0

+1 x6854 -1 x68c4 -1 x68c5 = +0

+1 x68b6 -1 x68c6 +0 x68c7 = +0

+1 x685a -1 x68cd -1 x68ce = +0

+1 x6873 -1 x68dd +1 x69ec = +0

+1 x6865 -1 x68de -1 x68df = +0

+1 x68cd -1 x68e1 +1 x6952 +1 x6989 +1 x69a7 = +0

+1 x6891 -1 x68e3 -1 x68e4 = +0

+1 x686c -1 x68e5 -1 x68e6 = +0

+1 x68c4 +1 x68c5 -1 x68e9 = +0

+1 x6872 -1 x68ec -1 x68ed = +0

+1 x68dd -1 x68ef -1 x68f0 = +0

+1 x68de +1 x68df -1 x68f1 = +0

+1 x68e6 -1 x68fb +0 x68fc = +0

+1 x68ef -1 x6903 +0 x6904 = +0

+1 x68a0 -1 x6909 -1 x690a = +0

+1 x68a5 -1 x6912 -1 x6913 = +0

+1 x6909 -1 x691e +1 x6950 = +0

+1 x6912 -1 x6924 -1 x6925 = +0

+1 x6924 -1 x6935 +1 x69ac +1 x69b8 = +0

+1 x68c6 -1 x693a +1 x6a21 = +0

+1 x68b7 -1 x693b -1 x693c = +0

+1 x693a -1 x6948 -1 x6949 = +0

+1 x693b -1 x694a +1 x69af +1 x69e9 = +0

+1 x690a -1 x6950 -1 x6951 = +0

+1 x68ce -1 x6952 -1 x6953 = +0

+1 x6948 -1 x695c +0 x695d = +0

+1 x6953 -1 x6969 -1 x696a = +0

+1 x6969 -1 x6978 +1 x6979 +1 x698a = +0

+1 x696a -1 x6979 -1 x697a = +0

+1 x697a -1 x6989 -1 x698a = +0

+1 x6913 -1 x698f -1 x6990 = +0

+1 x6925 -1 x699c -1 x699d = +0

+1 x6978 -1 x69a7 -1 x69a8 = +0

+1 x698f +1 x6990 -1 x69ac = +0

+1 x693c -1 x69af -1 x69b0 = +0

+1 x68f0 -1 x69b3 -1 x69b4 = +0

+1 x699c +1 x699d -1 x69b8 = +0

+1 x69b3 +1 x69b4 -1 x69be = +0

+1 x69be -1 x69d5 +1 x6a3f = +0

+1 x69d5 -1 x69e0 -1 x69e1 = +0

+1 x6949 -1 x69e7 -1 x69e8 = +0

+1 x69b0 -1 x69e9 -1 x69ea = +0

+1 x69e0 -1 x69ec +0 x69ed = +0

+1 x69e7 -1 x69f6 +1 x6a3b +1 x6a6c = +0

+1 x69f6 -1 x6a0d +1 x6a6a = +0

+1 x6a0d -1 x6a17 -1 x6a18 = +0

+1 x6a17 -1 x6a21 +0 x6a22 = +0

+1 x695c -1 x6a2a -1 x6a2b = +0

+1 x69e1 -1 x6a32 -1 x6a33 = +0

+1 x691e -1 x6a34 -1 x6a35 = +0

+1 x69e8 -1 x6a3b -1 x6a3c = +0

+1 x6a32 +1 x6a33 -1 x6a3f = +0

+1 x6a34 -1 x6a41 +1 x6a80 +1 x6a81 = +0

+1 x6a2a +1 x6a2b -1 x6a43 = +0

+1 x6a41 -1 x6a53 +1 x6ab0 = +0

+1 x6a53 -1 x6a5c -1 x6a5d = +0

+1 x6a18 -1 x6a60 -1 x6a61 = +0

+1 x6a5c -1 x6a65 +0 x6a66 = +0

+1 x6a60 -1 x6a6a +1 x6aaa +1 x6ad0 +1 x6ae1 = +0

+1 x6a3c -1 x6a6c -1 x6a6d = +0

+1 x6a35 -1 x6a80 -1 x6a81 = +0

+1 x6a43 -1 x6a83 -1 x6a84 = +0

+1 x6a83 -1 x6a8c +1 x6aa8 = +0

+1 x6a65 -1 x6aa4 +1 x6b34 = +0

+1 x6a5d -1 x6aa5 -1 x6aa6 = +0

+1 x6a84 -1 x6aa8 -1 x6aa9 = +0

+1 x6a61 -1 x6aaa -1 x6aab = +0

+1 x6aa4 -1 x6aae -1 x6aaf = +0

+1 x6aa5 -1 x6ab0 +1 x6aed +1 x6b10 = +0

+1 x6aab -1 x6ab5 -1 x6ab6 = +0

+1 x6aae -1 x6ab8 +0 x6ab9 = +0

+1 x6ab5 -1 x6ac1 +1 x6ac2 +1 x6ad1 = +0

+1 x6ab6 -1 x6ac2 -1 x6ac3 = +0

+1 x6ac3 -1 x6ad0 -1 x6ad1 = +0

+1 x6ac1 -1 x6ae1 -1 x6ae2 = +0

+1 x6aa6 -1 x6aed -1 x6aee = +0

+1 x6aaf -1 x6b0e -1 x6b0f = +0

+1 x6aee -1 x6b10 -1 x6b11 = +0

+1 x6b0e -1 x6b15 +1 x6b4f +1 x6b80 = +0

+1 x6b15 -1 x6b23 +1 x6b7e = +0

+1 x6903 -1 x6b29 +1 x6b32 = +0

+1 x6b23 -1 x6b2b -1 x6b2c = +0

+1 x6b29 -1 x6b31 -1 x6b32 = +0

+1 x6b2b -1 x6b34 +0 x6b35 = +0

+1 x6a8c -1 x6b38 -1 x6b39 = +0

+1 x6b31 -1 x6b3a +0 x6b3b = +0

+1 x6ab8 -1 x6b3d -1 x6b3e = +0

+1 x6b38 -1 x6b44 +1 x6b84 +1 x6b85 = +0

+1 x6b0f -1 x6b4f -1 x6b50 = +0

+1 x6b3d +1 x6b3e -1 x6b56 = +0

+1 x6b44 -1 x6b5a +1 x6bc0 = +0

+1 x6b5a -1 x6b62 -1 x6b63 = +0

+1 x6b62 -1 x6b6c +0 x6b6d = +0

+1 x6b2c -1 x6b73 -1 x6b74 = +0

+1 x6b3a -1 x6b7b +1 x6c29 = +0

+1 x6b73 -1 x6b7e +1 x6bc6 +1 x6beb +1 x6bfc = +0

+1 x6b50 -1 x6b80 -1 x6b81 = +0

+1 x6b39 -1 x6b84 -1 x6b85 = +0

+1 x6b7b -1 x6b87 -1 x6b88 = +0

+1 x6b87 -1 x6b93 +0 x6b94 = +0

+1 x6b56 -1 x6b98 -1 x6b99 = +0

+1 x6b98 -1 x6ba4 +1 x6bc4 = +0

+1 x6b6c -1 x6bb5 +1 x6c51 = +0

+1 x6b63 -1 x6bb6 -1 x6bb7 = +0

+1 x6bb5 -1 x6bbe -1 x6bbf = +0

+1 x6bb6 -1 x6bc0 +1 x6c00 +1 x6c26 = +0

+1 x6b99 -1 x6bc4 -1 x6bc5 = +0

+1 x6b74 -1 x6bc6 -1 x6bc7 = +0

+1 x6bbe -1 x6bc9 +0 x6bca = +0

+1 x6bc7 -1 x6bd3 -1 x6bd4 = +0

+1 x6bd3 -1 x6bde +1 x6bdf +1 x6bec = +0

+1 x6bd4 -1 x6bdf -1 x6be0 = +0

+1 x6be0 -1 x6beb -1 x6bec = +0

+1 x6bde -1 x6bfc -1 x6bfd = +0

+1 x6bb7 -1 x6c00 -1 x6c01 = +0

+1 x6b88 -1 x6c1a +1 x6c22 = +0

+1 x6c1a -1 x6c21 -1 x6c22 = +0

+1 x6bbf -1 x6c24 -1 x6c25 = +0

+1 x6c01 -1 x6c26 -1 x6c27 = +0

+1 x6c21 -1 x6c29 +0 x6c2a = +0

+1 x6c24 -1 x6c2d +1 x6c67 +1 x6c86 = +0

+1 x6c2d -1 x6c3f +1 x6c84 = +0

+1 x6c3f -1 x6c48 -1 x6c49 = +0

+1 x6c48 -1 x6c51 +0 x6c52 = +0

+1 x6bc9 -1 x6c59 -1 x6c5a = +0

+1 x6c25 -1 x6c67 -1 x6c68 = +0

+1 x6c59 +1 x6c5a -1 x6c6c = +0

+1 x6c49 -1 x6c7f -1 x6c80 = +0

+1 x6c7f -1 x6c84 +1 x6ca6 +1 x6cb7 +1 x6cbe = +0

+1 x6c68 -1 x6c86 -1 x6c87 = +0

+1 x6c6c -1 x6c90 -1 x6c91 = +0

+1 x6c90 -1 x6c95 +1 x6ca4 = +0

+1 x6c91 -1 x6ca4 -1 x6ca5 = +0

+1 x6c80 -1 x6ca6 -1 x6ca7 = +0

+1 x6ca7 -1 x6cab -1 x6cac = +0

+1 x6cab -1 x6caf +1 x6cb0 +1 x6cb8 = +0

+1 x6cac -1 x6cb0 -1 x6cb1 = +0

+1 x6cb1 -1 x6cb7 -1 x6cb8 = +0

+1 x6caf -1 x6cbe -1 x6cbf = +0



-1 x68e4 <= +0

-1 x6b11 <= +0

-1 x6826 <= +0

-1 x69a8 <= +0

-1 x6b81 <= +0

-1 x6bfd <= +0

-1 x6a6d <= +0

-1 x6c27 <= +0

-1 x69ea <= +0

-1 x6ae2 <= +0

-1 x6c87 <= +0

-1 x6cbf <= +0

-1 x66a1 +1 x6755 = +0

-1 x6703 +1 x678a = +0

-1 x66d5 +1 x67b3 <= +0

-1 x691e +1 x6ab8 <= +0

-1 x6759 +1 x6903 = +0

-1 x6903 +1 x6b93 = +0

-1 x6793 +1 x695c <= +0

-1 x6a8c +1 x6bc9 <= +0

-1 x6699 <= +0

-1 x6726 <= +0

-1 x6668 <= +0

-1 x667e <= +0

-1 x6951 <= +0

-1 x6bc5 <= +0

-1 x6aa9 <= +0

-1 x6ca5 <= +0

-1 x665f +1 x6667 <= +0

-1 x6670 +1 x667d <= +0

-1 x690a +1 x6950 <= +0

-1 x6b99 +1 x6bc4 <= +0

-1 x6a84 +1 x6aa8 <= +0

-1 x6c91 +1 x6ca4 <= +0

-1 x6651 +1 x6660 <= +0

-1 x6660 +1 x6674 <= +0

-1 x6647 +1 x6651 = +0

-1 x6674 +1 x6691 <= +0

-1 x6691 +1 x66b3 = +0

-1 x67d4 +1 x6841 = +0

-1 x6833 +1 x6842 = +0

-1 x684d +1 x68fb = +0

-1 x68e5 +1 x68fc = +0

-1 x6754 +1 x67e0 = +0

-1 x67de +1 x685f = +0

-1 x66a1 +1 x6755 = +0

-1 x674d +1 x6756 = +0

-1 x675f +1 x678a = +0

+1 x678b -1 x67e8 = +0

-1 x67f3 +1 x6825 <= +0

-1 x6891 +1 x68e3 <= +0

-1 x6978 +1 x69a7 <= +0

-1 x6aee +1 x6b10 <= +0

-1 x6b50 +1 x6b80 <= +0

-1 x6bde +1 x6bfc <= +0

-1 x69b0 +1 x69e9 <= +0

-1 x6a3c +1 x6a6c <= +0

-1 x6ac1 +1 x6ae1 <= +0

-1 x6c01 +1 x6c26 <= +0

-1 x6c68 +1 x6c86 <= +0

-1 x6caf +1 x6cbe <= +0

-1 x6737 +1 x674f <= +0

+1 x6750 -1 x67a7 <= +0

-1 x682e +1 x6868 <= +0

+1 x6869 -1 x68e1 <= +0

-1 x6a41 +1 x6a65 <= +0

+1 x6a66 -1 x6ab0 <= +0

-1 x6b15 +1 x6b34 <= +0

+1 x6b35 -1 x6b7e <= +0

-1 x6837 +1 x6873 = +0

+1 x6874 -1 x68f1 = +0

-1 x69be +1 x69ec = +0

+1 x69ed -1 x6a3f = +0

-1 x6903 +1 x6b3a = +0

-1 x6b32 +1 x6b3b = +0

-1 x6b88 +1 x6c29 = +0

-1 x6c22 +1 x6c2a = +0

-1 x6884 +1 x68c6 <= +0

+1 x68c7 -1 x694a <= +0

-1 x69f6 +1 x6a21 <= +0

+1 x6a22 -1 x6a6a <= +0

-1 x6b44 +1 x6b6c <= +0

+1 x6b6d -1 x6bc0 <= +0

-1 x6c2d +1 x6c51 <= +0

+1 x6c52 -1 x6c84 <= +0

-1 x66d5 +1 x674f <= +0

-1 x67a6 +1 x6868 <= +0

-1 x691e +1 x6a65 <= +0

-1 x6aaf +1 x6b34 <= +0

-1 x6759 +1 x6873 = +0

-1 x68f0 +1 x69ec = +0

-1 x6903 +1 x6b3a = +0

-1 x6b88 +1 x6c29 = +0

-1 x6793 +1 x68c6 <= +0

-1 x6949 +1 x6a21 <= +0

-1 x6a8c +1 x6b6c <= +0

-1 x6bbf +1 x6c51 <= +0

-1 x674f +1 x67b3 <= +0

+1 x67b4 -1 x6868 <= +0

-1 x6a65 +1 x6ab8 <= +0

+1 x6ab9 -1 x6b34 <= +0

-1 x6873 +1 x6903 = +0

+1 x6904 -1 x69ec = +0

-1 x6b3a +1 x6b93 = +0

+1 x6b94 -1 x6c29 = +0

-1 x68c6 +1 x695c <= +0

+1 x695d -1 x6a21 <= +0

-1 x6b6c +1 x6bc9 <= +0

+1 x6bca -1 x6c51 <= +0

-1 x6647 +1 x6651 = +0

-1 x6650 +1 x6652 = +0

-1 x66d5 +1 x67b3 <= +0

-1 x6759 +1 x6903 = +0

-1 x6793 +1 x695c <= +0

-1 x67b3 +1 x68a0 = +0

-1 x695c +1 x6a43 = +0

-1 x68a0 +1 x691e <= +0

-1 x6a43 +1 x6a8c <= +0

-1 x691e +1 x6ab8 <= +0

-1 x6903 +1 x6b93 = +0

-1 x6a8c +1 x6bc9 <= +0

-1 x6ab8 +1 x6b56 = +0

-1 x6bc9 +1 x6c6c = +0

-1 x6b56 +1 x6ba4 <= +0

-1 x6c6c +1 x6c95 <= +0

-1 x6698 +1 x66d2 <= +0

+1 x66d3 -1 x66db <= +0

-1 x6765 +1 x6790 <= +0

+1 x6791 -1 x67a2 <= +0

-1 x6690 +1 x6698 <= +0

-1 x670f +1 x6725 <= +0

-1 x6698 +1 x66d2 <= +0

-1 x6725 +1 x6790 <= +0

-1 x66d2 +1 x6713 <= +0

+1 x6714 -1 x6790 <= +0

-1 x66b6 +1 x66f6 = +0

-1 x66a1 +1 x6755 = +0

-1 x6703 +1 x678a = +0

-1 x66a4 +1 x66b3 = +0

+1 x66b4 -1 x66bc = +0




-8 x6754 +1 x67d4 +1 x6833 <= +0

-7 x67d4 +1 x6833 <= +0

-7 x6754 +1 x6833 <= +0

-8 x67de +1 x684d +1 x68e5 <= +0

-7 x684d +1 x68e5 <= +0

-7 x67de +1 x68e5 <= +0


-8 x66a1 +1 x674d >= +0

-8 x66a1 +1 x674d <= +0

-8 x66a1 +1 x674d <= +0

-8 x66a1 +1 x674d <= +0

-9 x6703 +1 x675f +1 x67e8 >= +0

-9 x6703 +1 x675f +1 x67e8 <= +0

-8 x675f +1 x67e8 <= +0

-8 x6703 +1 x67e8 <= +0


-9 x66d5 +1 x6737 +1 x67a7 <= +0

-8 x6737 +1 x67a7 <= +0

-8 x66d5 +1 x67a7 <= +0

-9 x67a6 +1 x682e +1 x68e1 <= +0

-8 x682e +1 x68e1 <= +0

-8 x67a6 +1 x68e1 <= +0

-9 x691e +1 x6a41 +1 x6ab0 <= +0

-8 x6a41 +1 x6ab0 <= +0

-8 x691e +1 x6ab0 <= +0

-9 x6aaf +1 x6b15 +1 x6b7e <= +0

-8 x6b15 +1 x6b7e <= +0

-8 x6aaf +1 x6b7e <= +0

-9 x6759 +1 x6837 +1 x68f1 >= +0

-9 x6759 +1 x6837 +1 x68f1 <= +0

-8 x6837 +1 x68f1 <= +0

-8 x6759 +1 x68f1 <= +0

-9 x68f0 +1 x69be +1 x6a3f >= +0

-9 x68f0 +1 x69be +1 x6a3f <= +0

-8 x69be +1 x6a3f <= +0

-8 x68f0 +1 x6a3f <= +0

-8 x6903 +1 x6b32 >= +0

-8 x6903 +1 x6b32 <= +0

-8 x6903 +1 x6b32 <= +0

-8 x6903 +1 x6b32 <= +0

-8 x6b88 +1 x6c22 >= +0

-8 x6b88 +1 x6c22 <= +0

-8 x6b88 +1 x6c22 <= +0

-8 x6b88 +1 x6c22 <= +0

-9 x6793 +1 x6884 +1 x694a <= +0

-8 x6884 +1 x694a <= +0

-8 x6793 +1 x694a <= +0

-9 x6949 +1 x69f6 +1 x6a6a <= +0

-8 x69f6 +1 x6a6a <= +0

-8 x6949 +1 x6a6a <= +0

-9 x6a8c +1 x6b44 +1 x6bc0 <= +0

-8 x6b44 +1 x6bc0 <= +0

-8 x6a8c +1 x6bc0 <= +0

-9 x6bbf +1 x6c2d +1 x6c84 <= +0

-8 x6c2d +1 x6c84 <= +0

-8 x6bbf +1 x6c84 <= +0


-9 x66d5 +1 x674f +1 x6868 <= +0

-8 x674f +1 x6868 <= +0

-8 x66d5 +1 x6868 <= +0

-9 x691e +1 x6a65 +1 x6b34 <= +0

-8 x6a65 +1 x6b34 <= +0

-8 x691e +1 x6b34 <= +0

-9 x6759 +1 x6873 +1 x69ec >= +0

-9 x6759 +1 x6873 +1 x69ec <= +0

-8 x6873 +1 x69ec <= +0

-8 x6759 +1 x69ec <= +0

-9 x6903 +1 x6b3a +1 x6c29 >= +0

-9 x6903 +1 x6b3a +1 x6c29 <= +0

-8 x6b3a +1 x6c29 <= +0

-8 x6903 +1 x6c29 <= +0

-9 x6793 +1 x68c6 +1 x6a21 <= +0

-8 x68c6 +1 x6a21 <= +0

-8 x6793 +1 x6a21 <= +0

-9 x6a8c +1 x6b6c +1 x6c51 <= +0

-8 x6b6c +1 x6c51 <= +0

-8 x6a8c +1 x6c51 <= +0


-511 x6647 +1 x6650 >= +0

-511 x6647 +1 x6650 <= +0

-511 x6647 +1 x6650 <= +0

-511 x6647 +1 x6650 <= +0


-511 x6698 +1 x66db <= +0

-511 x6698 +1 x66db <= +0

-511 x6698 +1 x66db <= +0

-512 x6725 +1 x6765 +1 x67a2 <= +0

-511 x6765 +1 x67a2 <= +0

-511 x6725 +1 x67a2 <= +0


-512 x6674 +1 x66d2 +1 x6790 <= +0

-511 x66d2 +1 x6790 <= +0

-511 x6674 +1 x6790 <= +0


-512 x6691 +1 x66a4 +1 x66bc >= +0

-512 x6691 +1 x66a4 +1 x66bc <= +0

-511 x66a4 +1 x66bc <= +0

-511 x6691 +1 x66bc <= +0







general
z
o
x6647
x664e
x664f
x6650
x6651
x6652
x665e
x665f
x6660
x6667
x6668
x666f
x6670
x6674
x667d
x667e
x668f
x6690
x6691
x6698
x6699
x66a0
x66a1
x66a4
x66ac
x66af
x66b0
x66b3
x66b4
x66b5
x66b6
x66bc
x66c9
x66ce
x66cf
x66d2
x66d3
x66d4
x66d5
x66db
x66eb
x66ec
x66ee
x66f6
x6702
x6703
x670e
x670f
x6713
x6714
x6725
x6726
x6731
x6732
x6737
x6743
x6746
x6748
x6749
x674c
x674d
x674f
x6750
x6753
x6754
x6755
x6756
x6758
x6759
x675f
x6765
x6769
x676a
x6775
x6779
x677e
x677f
x6783
x6784
x678a
x678b
x6790
x6791
x6792
x6793
x6795
x6796
x6797
x67a2
x67a5
x67a6
x67a7
x67b3
x67b4
x67d4
x67d5
x67dd
x67de
x67e0
x67e8
x67ea
x67f2
x67f3
x6823
x6824
x6825
x6826
x682b
x682c
x682e
x6833
x6834
x6837
x6841
x6842
x6848
x684d
x684e
x6853
x6854
x6856
x6859
x685a
x685f
x6860
x6861
x6864
x6865
x6868
x6869
x686c
x686e
x6871
x6872
x6873
x6874
x6877
x6878
x687f
x6880
x6884
x6890
x6891
x68a0
x68a5
x68a9
x68b6
x68b7
x68c4
x68c5
x68c6
x68c7
x68cd
x68ce
x68dd
x68de
x68df
x68e1
x68e3
x68e4
x68e5
x68e6
x68e9
x68ec
x68ed
x68ef
x68f0
x68f1
x68fb
x68fc
x6903
x6904
x6909
x690a
x6912
x6913
x691e
x6924
x6925
x6935
x693a
x693b
x693c
x6948
x6949
x694a
x6950
x6951
x6952
x6953
x695c
x695d
x6969
x696a
x6978
x6979
x697a
x6989
x698a
x698f
x6990
x699c
x699d
x69a7
x69a8
x69ac
x69af
x69b0
x69b3
x69b4
x69b8
x69be
x69d5
x69e0
x69e1
x69e7
x69e8
x69e9
x69ea
x69ec
x69ed
x69f6
x6a0d
x6a17
x6a18
x6a21
x6a22
x6a2a
x6a2b
x6a32
x6a33
x6a34
x6a35
x6a3b
x6a3c
x6a3f
x6a41
x6a43
x6a53
x6a5c
x6a5d
x6a60
x6a61
x6a65
x6a66
x6a6a
x6a6c
x6a6d
x6a80
x6a81
x6a83
x6a84
x6a8c
x6aa4
x6aa5
x6aa6
x6aa8
x6aa9
x6aaa
x6aab
x6aae
x6aaf
x6ab0
x6ab5
x6ab6
x6ab8
x6ab9
x6ac1
x6ac2
x6ac3
x6ad0
x6ad1
x6ae1
x6ae2
x6aed
x6aee
x6b0e
x6b0f
x6b10
x6b11
x6b15
x6b23
x6b29
x6b2b
x6b2c
x6b31
x6b32
x6b34
x6b35
x6b38
x6b39
x6b3a
x6b3b
x6b3d
x6b3e
x6b44
x6b4f
x6b50
x6b56
x6b5a
x6b62
x6b63
x6b6c
x6b6d
x6b73
x6b74
x6b7b
x6b7e
x6b80
x6b81
x6b84
x6b85
x6b87
x6b88
x6b93
x6b94
x6b98
x6b99
x6ba4
x6bb5
x6bb6
x6bb7
x6bbe
x6bbf
x6bc0
x6bc4
x6bc5
x6bc6
x6bc7
x6bc9
x6bca
x6bd3
x6bd4
x6bde
x6bdf
x6be0
x6beb
x6bec
x6bfc
x6bfd
x6c00
x6c01
x6c1a
x6c21
x6c22
x6c24
x6c25
x6c26
x6c27
x6c29
x6c2a
x6c2d
x6c3f
x6c48
x6c49
x6c51
x6c52
x6c59
x6c5a
x6c67
x6c68
x6c6c
x6c7f
x6c80
x6c84
x6c86
x6c87
x6c90
x6c91
x6c95
x6ca4
x6ca5
x6ca6
x6ca7
x6cab
x6cac
x6caf
x6cb0
x6cb1
x6cb7
x6cb8
x6cbe
x6cbf

end



